c This is UnifRandomKSATGenerator
c uniform random 3-SAT generated instance with: 
c clause length: 3 
c number variables: 10 
c number clauses: 43 
c clause to variable ratio: 4.27 
c random number generator name: SHA1PRNG 
c random number generator provider: SUN 
c random number generator seed: 2714400397385193467 
p cnf 10 43
8 -2 5 0
1 10 -8 0
-1 3 6 0
-1 -5 7 0
-10 6 -7 0
-1 -3 5 0
-9 10 -5 0
4 5 7 0
-10 2 5 0
-2 -4 -5 0
-2 5 -8 0
1 -6 -8 0
-1 8 9 0
8 1 9 0
8 1 10 0
-4 -7 6 0
-10 3 5 0
-4 -5 -8 0
-2 -5 -8 0
-1 -5 -8 0
-2 -3 -5 0
1 5 -7 0
8 -4 7 0
-10 3 -5 0
-1 9 10 0
1 5 6 0
9 -2 3 0
3 5 6 0
1 -10 -4 0
-9 -2 3 0
9 -5 6 0
8 -2 10 0
3 -6 -7 0
1 10 6 0
2 -3 10 0
8 10 6 0
-10 1 3 0
-2 -7 -8 0
-10 -3 4 0
1 -10 9 0
-9 10 3 0
-10 2 -7 0
1 9 -8 0
